n=10; m= 10; 


10	6	12	5	14	29	36	46	13	17
18	37	8	4	6	26	12	20	25	33
31	23	10	11	12	33	38	26	43	21
35	12	47	43	43	38	46	45	11	39
22	35	18	19	8	11	29	29	43	31
24	44	19	21	12	4	28	14	21	16
6	32	47	30	24	37	34	36	19	25
37	44	27	9	30	28	17	32	46	15
11	15	3	4	41	9	19	44	34	3
22	35	18	19	8	11	29	29	43	31






